============================[ Problem Statistics ]=============================
|                                                                             |
|  Number of variables:         54411                                         |
|  Number of clauses:          419808                                         |
|  Parse time:                   0.80 s                                       |
|  Eliminated clauses:           0.48 Mb                                      |
|  Simplification time:          2.16 s                                       |
|                                                                             |
============================[ Search Statistics ]==============================
| Conflicts |          ORIGINAL         |          LEARNT          | Progress |
|           |    Vars  Clauses Literals |    Limit  Clauses Lit/Cl |          |
===============================================================================
|       100 |   29987   251434   826076 |    92192      100     62 | 17.467 % |
|       250 |   29987   251434   826076 |   101411      250     34 | 17.467 % |
|       475 |   29987   251434   826076 |   111552      475     24 | 17.467 % |
|       812 |   29987   251434   826076 |   122708      812     18 | 17.467 % |
|      1318 |   29987   251434   826076 |   134978     1318     17 | 17.467 % |
|      2077 |   29987   251434   826076 |   148476     2077     14 | 17.467 % |
|      3216 |   29987   251434   826076 |   163324     3216     14 | 17.467 % |
|      4924 |   29987   251434   826076 |   179657     4924     12 | 17.467 % |
|      7486 |   29987   251434   826076 |   197622     7486     11 | 17.467 % |
|     11330 |   29987   251434   826076 |   217385    11330     12 | 17.467 % |
|     17096 |   29987   251434   826076 |   239123    17096     11 | 17.467 % |
|     25745 |   29987   251434   826076 |   263035    25745     11 | 17.467 % |
|     38719 |   29987   251434   826076 |   289339    38719     11 | 17.467 % |
|     58180 |   29987   251434   826076 |   318273    58180     12 | 17.467 % |
|     87372 |   29987   251434   826076 |   350100    87372     12 | 17.467 % |
|    131161 |   29987   251434   826076 |   385110   131161     15 | 17.467 % |
|    196845 |   29987   251434   826076 |   423621   196845     16 | 17.467 % |
|    295371 |   29987   251434   826076 |   465984   295371     19 | 17.467 % |
|    443160 |   29987   251434   826076 |   512582   443160     22 | 17.467 % |
|    664843 |   29987   251434   826076 |   563840   171874     21 | 17.467 % |
|    997368 |   29987   251434   826076 |   620224   504399     24 | 17.467 % |
|   1496156 |   29987   251434   826076 |   682247   391859     23 | 17.467 % |
|   2244338 |   29985   249691   820862 |   750472   483048     24 | 17.471 % |
===============================================================================
restarts              : 4922 
conflicts             : 2807883         (989 /sec)
decisions             : 20161521       (0.00 % random) (7101 /sec)
propagations          : 368880081      (129918 /sec)
conflict literals     : 68417019       (19.52 % deleted)
CPU time              : 2839.33 s

UNSATISFIABLE
